(set-option :auto-config true)
(declare-const GEN1 Real)
(declare-const GEN2 Real)
(declare-const BAV3 Bool)
(declare-const BAV4 Bool)
(declare-const BAV5 Bool)
(set-option :produce-models true)
(declare-const a Int)
(declare-const b Int)
(declare-const c Int)
(declare-const d Real)
(declare-const e Real)
(assert (> e (+ (to_real (+ a b)) GEN1)))
(assert (= d (+ (to_real c) GEN2)))
(assert (> a b))
(assert (= BAV3 (> e (+ (to_real (+ a b)) GEN1))))
(assert (= BAV4 (= d (+ (to_real c) GEN2))))
(assert (= BAV5 (> a b)))
(check-sat)
(get-model)